NAME : Problem-5-10-B
TYPE : HVRP
DIMENSION : 11
EDGE_WEIGHT_TYPE : EUC_2D

NODE_COORD_SECTION
1 20 20
2 37 52
4 52 64
7 21 47
10 52 33
11 51 21
13 31 32
15 12 42
16 36 16
18 27 23
20 13 13

DEMAND_SECTION
1 0
2 7
4 16
7 15
10 11
11 5
13 29
15 21
16 10
18 3
20 9

VEHICLE_TYPES
# id capacity fixed_cost var_cost
A 20 20 1 
B 30 35 1 
C 40 50 1
D 70 120 1
E 120 225 1 
END_VEHICLE_TYPES

DEPOT_SECTION
1
-1
EOF
